n_res = 4;
rc = [ 28, 18, 23, 21 ];
n_tasks = 30;
d = [ 10, 5, 2, 2, 4, 10, 3, 6, 10, 6, 4, 8, 4, 8, 10, 9, 6, 3, 7, 3, 1, 9, 3, 5, 7, 10, 8, 2, 6, 6 ];
rr = [| 28, 28, 28, 28, 28, 28, 28, 28, 28, 28, 28, 28, 28, 28, 28, 28, 28, 28, 28, 28, 28, 28, 28, 28, 28, 28, 28, 28, 28, 28
      | 18, 18, 18, 18, 18, 18, 18, 18, 18, 18, 18, 18, 18, 18, 18, 18, 18, 18, 18, 18, 18, 18, 18, 18, 18, 18, 18, 18, 18, 18
      | 23, 23, 23, 23, 23, 23, 23, 23, 23, 23, 23, 23, 23, 23, 23, 23, 23, 23, 23, 23, 23, 23, 23, 23, 23, 23, 23, 23, 23, 23
      | 21, 21, 21, 21, 21, 21, 21, 21, 21, 21, 21, 21, 21, 21, 21, 21, 21, 21, 21, 21, 21, 21, 21, 21, 21, 21, 21, 21, 21, 21|];
suc = [ { 4, 6, 9 },
       { 5, 7, 12 },
       { 5, 6, 14 },
       { 11, 15, 28 },
       { 11, 17, 22 },
       { 8, 10, 13 },
       { 9, 16, 18 },
       { 16, 27 },
       { 14, 20, 24 },
       { 19, 23, 28 },
       { 19, 21 },
       { 18, 20, 22 },
       { 16, 17, 22 },
       { 23, 25, 26 },
       { 17, 20, 21 },
       { 21, 23 },
       { 18, 19, 29 },
       { 30 },
       { 26, 27 },
       { 25 },
       { 24 },
       { 24, 25, 28 },
       { 29 },
       { 26, 29 },
       { 27 },
       { 30 },
       { 30 },
       {  },
       {  },
       {  } ];
